NAME : LC2_6_7
TYPE : PDPTW
DIMENSION : 150
EDGE_WEIGHT_TYPE : EXACT_2D
NODE_COORD_SECTION
1 1 0
2 150 0
3 0 0
4 -40 1895
5 0 2
6 1788 2314
7 3 122
8 3625 90
9 165 85
10 90 0
11 198 20
12 0 425
13 30 550
14 82 7
15 1061 1593
16 8 58
17 2001 90
18 243 35
19 90 0
20 45 20
21 0 481
22 30 1038
23 122 12
24 834 1675
25 13 279
26 1033 90
27 97 40
28 90 0
29 52 20
30 0 114
31 -20 3018
32 0 17
33 1560 2288
34 18 64
35 1105 90
36 141 231
37 90 0
38 211 -10
39 285 0
40 -10 732
41 0 22
42 3123 3417
43 23 66
44 3459 90
45 83 219
46 90 0
47 210 20
48 0 366
49 20 411
50 246 27
51 718 1652
52 28 165
53 3615 90
54 117 262
55 90 0
56 49 20
57 0 121
58 10 217
59 38 32
60 1801 3047
61 33 182
62 2813 90
63 239 181
64 90 0
65 114 10
66 0 599
67 -20 1551
68 0 37
69 81 902
70 38 142
71 1723 90
72 102 51
73 90 0
74 62 10
75 0 462
76 -20 2763
77 0 42
78 1362 2547
79 43 244
80 2942 90
81 125 23
82 90 405
83 23 -20
84 304 0
85 -30 189
86 0 47
87 1569 2178
88 48 262
89 2108 90
90 75 28
91 90 195
92 63 -10
93 124 0
94 20 645
95 428 52
96 42 1003
97 53 179
98 3056 90
99 154 257
100 90 310
101 38 -20
102 534 0
103 -30 439
104 0 57
105 2946 3511
106 58 28
107 538 90
108 25 150
109 90 426
110 32 10
111 0 417
112 10 830
113 508 62
114 2147 2504
115 63 186
116 583 90
117 252 60
118 90 312
119 10 20
120 0 314
121 -20 2445
122 0 67
123 665 811
124 68 101
125 2568 90
126 103 35
127 90 591
128 244 20
129 0 319
130 -20 1865
131 0 72
132 2323 3338
133 73 74
134 2518 90
135 222 160
136 90 0
137 163 -20
138 552 0
139 10 2618
140 102 77
141 2415 2883
142 78 17
143 1018 90
144 203 200
145 90 0
146 137 10
147 0 276
148 -10 974
149 0 82
150 956 1797
PICKUP_AND_DELIVERY_SECTION
1 0 0 0 0 0 0
2 0 0 0 0 3815 0
3 0 0 0 0 0 248
4 0 0 0 0 90 90
5 0 0 0 0 221 221
6 0 0 0 0 550 550
7 0 0 0 0 -30 -30
8 0 0 0 0 0 0
9 0 0 0 0 2972 2972
10 0 0 0 0 5 5
11 0 0 0 0 1261 1261
12 0 0 0 0 55 55
13 0 0 0 0 90 90
14 0 0 0 0 70 70
15 0 0 0 0 0 0
16 0 0 0 0 -30 -30
17 0 0 0 0 0 0
18 0 0 0 0 2093 2093
19 0 0 0 0 10 10
20 0 0 0 0 656 656
21 0 0 0 0 30 30
22 0 0 0 0 90 90
23 0 0 0 0 27 27
24 0 0 0 0 295 295
25 0 0 0 0 10 10
26 0 0 0 0 385 0
27 0 0 0 0 379 379
28 0 0 0 0 15 15
29 0 0 0 0 2054 2054
30 0 0 0 0 226 226
31 0 0 0 0 90 90
32 0 0 0 0 21 21
33 0 0 0 0 547 547
34 0 0 0 0 -10 -10
35 0 0 0 0 0 0
36 0 0 0 0 81 81
37 0 0 0 0 20 20
38 0 0 0 0 3387 3387
39 0 0 0 0 50 50
40 0 0 0 0 90 90
41 0 0 0 0 178 178
42 0 0 0 0 568 568
43 0 0 0 0 -30 -30
44 0 0 0 0 0 0
45 0 0 0 0 96 96
46 0 0 0 0 25 25
47 0 0 0 0 383 383
48 0 0 0 0 173 173
49 0 0 0 0 90 90
50 0 0 0 0 180 180
51 0 0 0 0 452 452
52 0 0 0 0 -10 -10
53 0 0 0 0 0 0
54 0 0 0 0 2103 2103
55 0 0 0 0 30 30
56 0 0 0 0 1960 1960
57 0 0 0 0 176 176
58 0 0 0 0 90 90
59 0 0 0 0 46 46
60 0 0 0 0 227 227
61 0 0 0 0 -10 -10
62 0 0 0 0 0 0
63 0 0 0 0 94 94
64 0 0 0 0 35 35
65 0 0 0 0 805 805
66 0 0 0 0 34 34
67 0 0 0 0 90 90
68 0 0 0 0 231 231
69 0 0 0 0 0 0
70 0 0 0 0 -10 -10
71 0 0 0 0 0 0
72 0 0 0 0 110 110
73 0 0 0 0 40 40
74 0 0 0 0 828 828
75 0 0 0 0 261 261
76 0 0 0 0 90 90
77 0 0 0 0 146 146
78 0 0 0 0 418 418
79 0 0 0 0 10 10
80 0 0 0 0 317 0
81 0 0 0 0 2054 2054
82 0 0 0 0 45 0
83 0 0 0 0 3598 3598
84 0 0 0 0 92 92
85 0 0 0 0 90 90
86 0 0 0 0 272 272
87 0 0 0 0 294 294
88 0 0 0 0 20 20
89 0 0 0 0 183 0
90 0 0 0 0 1308 1308
91 0 0 0 0 50 0
92 0 0 0 0 3314 3314
93 0 0 0 0 224 224
94 0 0 0 0 90 90
95 0 0 0 0 116 116
96 0 0 0 0 0 0
97 0 0 0 0 -10 -10
98 0 0 0 0 0 0
99 0 0 0 0 1434 1434
100 0 0 0 0 55 0
101 0 0 0 0 3024 3024
102 0 0 0 0 83 83
103 0 0 0 0 90 90
104 0 0 0 0 201 201
105 0 0 0 0 359 359
106 0 0 0 0 30 30
107 0 0 0 0 167 0
108 0 0 0 0 1135 1135
109 0 0 0 0 60 0
110 0 0 0 0 2547 2547
111 0 0 0 0 67 67
112 0 0 0 0 90 90
113 0 0 0 0 50 50
114 0 0 0 0 0 0
115 0 0 0 0 10 10
116 0 0 0 0 450 0
117 0 0 0 0 136 136
118 0 0 0 0 65 0
119 0 0 0 0 2344 2344
120 0 0 0 0 239 239
121 0 0 0 0 90 90
122 0 0 0 0 102 102
123 0 0 0 0 0 0
124 0 0 0 0 -10 -10
125 0 0 0 0 0 0
126 0 0 0 0 2264 2264
127 0 0 0 0 70 0
128 0 0 0 0 1293 1293
129 0 0 0 0 231 231
130 0 0 0 0 90 90
131 0 0 0 0 114 114
132 0 0 0 0 0 0
133 0 0 0 0 -30 -30
134 0 0 0 0 0 0
135 0 0 0 0 771 771
136 0 0 0 0 75 75
137 0 0 0 0 3613 3613
138 0 0 0 0 125 125
139 0 0 0 0 90 90
140 0 0 0 0 203 203
141 0 0 0 0 589 589
142 0 0 0 0 20 20
143 0 0 0 0 433 0
144 0 0 0 0 385 385
145 0 0 0 0 80 80
146 0 0 0 0 581 581
147 0 0 0 0 263 263
148 0 0 0 0 90 90
149 0 0 0 0 137 137
150 0 0 0 0 6 6
DEPOT_SECTION
1 
-1
EOF
